c 175_3_checker_6cl.cnf
c
c field = 175
c formula set type = 3_checker_6cl
c
p cnf 6 46
342 
344 
346 
-341 
-338 
-350 
343 
345 
347 
-340 
-339 
-351 
342 
344 
346 
-351 
-340 
-352 
343 
345 
347 
-350 
-341 
-353 
344 
346 
350 
-343 
-340 
-352 
345 
347 
351 
-342 
-341 
-353 
344 
346 
350 
-353 
-342 
-354 
345 
347 
351 
-352 
-343 
-355 
346 
350 
352 
-345 
-342 
-354 
347 
351 
353 
-344 
-343 
-355 
346 
350 
352 
-355 
-344 
-356 
347 
351 
353 
-354 
-345 
-357 
350 
352 
354 
-347 
-344 
-356 
351 
353 
355 
-346 
-345 
-357 
350 
352 
354 
-357 
-346 
-358 
351 
353 
355 
-356 
-347 
-359 
258 
288 
318 
-229 
-198 
-378 
259 
289 
319 
-228 
-199 
-379 
258 
288 
318 
-379 
-228 
-408 
259 
289 
319 
-378 
-229 
-409 
288 
318 
378 
-259 
-228 
-408 
289 
319 
379 
-258 
-229 
-409 
288 
318 
378 
-409 
-258 
-438 
289 
319 
379 
-408 
-259 
-439 
318 
378 
408 
-289 
-258 
-438 
319 
379 
409 
-288 
-259 
-439 
252 
284 
316 
-221 
-188 
-380 
253 
285 
317 
-220 
-189 
-381 
252 
284 
316 
-381 
-220 
-412 
253 
285 
317 
-380 
-221 
-413 
284 
316 
380 
-253 
-220 
-412 
285 
317 
381 
-252 
-221 
-413 
284 
316 
380 
-413 
-252 
-444 
285 
317 
381 
-412 
-253 
-445 
316 
380 
412 
-285 
-252 
-444 
317 
381 
413 
-284 
-253 
-445 
264 
292 
320 
-237 
-208 
-376 
265 
293 
321 
-236 
-209 
-377 
264 
292 
320 
-377 
-236 
-404 
265 
293 
321 
-376 
-237 
-405 
292 
320 
376 
-265 
-236 
-404 
293 
321 
377 
-264 
-237 
-405 
292 
320 
376 
-405 
-264 
-432 
293 
321 
377 
-404 
-265 
-433 
320 
376 
404 
-293 
-264 
-432 
321 
377 
405 
-292 
-265 
-433 
